Route 1: 27 31 7 18 6 37 13
Route 2: 33 29 9 3 50 24
Route 3: 42 2 15 41 22 4 25
Route 4: 5 45 8 46 17 48
Route 5: 14 16 44 38 43
Route 6: 39 23 34 35
Route 7: 47 36 19 49 10 32
Route 8: 11 30 20 1
Route 9: 28 12 21 40 26
Vehicles: 9
Distance: 1003.67
